p cnf 42 82
-1 40 -33 0 
-2 -3 8 21 32 35 41 -6 0 
-4 15 19 41 -6 0 
-5 -6 40 -33 0 
-7 -8 3 21 32 35 40 -33 0 
-8 3 21 32 35 40 -33 0 
-9 29 -8 3 21 32 35 40 -33 0 
-10 22 41 -6 0 
-11 -12 18 41 -6 0 
-13 -7 -10 22 41 -6 0 
-3 8 21 32 35 41 -6 0 
-14 41 -6 0 
-11 -13 -15 4 19 41 -6 0 
-16 41 -6 0 
-4 15 19 -17 -18 12 41 -6 0 
-19 4 15 42 -24 -30 0 
-20 -7 -4 15 19 41 -6 0 
-6 -7 40 -33 0 
-19 4 15 40 -33 0 
-21 3 8 32 35 41 -6 0 
-5 -3 8 21 32 35 41 -6 0 
-22 10 -6 40 -33 0 
-18 12 -3 8 21 32 35 41 -6 0 
-6 -7 -23 28 40 -33 0 
-24 30 -5 41 -6 0 
-25 41 -6 0 
-10 22 -13 41 -6 0 
-17 -4 15 19 41 -6 0 
-13 -7 -3 8 21 32 35 41 -6 0 
-2 -8 3 21 32 35 40 -33 0 
-26 -4 15 19 41 -6 0 
-20 -3 8 21 32 35 41 -6 0 
-6 40 -33 0 
-4 15 19 -18 12 41 -6 0 
-20 -5 -4 15 19 41 -6 0 
-13 -5 -3 8 21 32 35 41 -6 0 
-26 -7 -3 8 21 32 35 41 -6 0 
-27 41 -6 0 
-15 4 19 41 -6 0 
-8 3 21 32 35 42 -24 -30 0 
-5 -1 42 -24 -30 0 
-28 23 42 -24 -30 0 
-13 -6 -1 42 -24 -30 0 
-19 4 15 -5 -6 -29 9 42 -24 -30 0 
-7 -1 42 -24 -30 0 
-30 24 41 -6 0 
-31 40 -33 0 
-18 12 41 -6 0 
-32 3 8 21 35 42 -24 -30 0 
-33 42 -24 -30 0 
-13 -8 3 21 32 35 42 -24 -30 0 
-26 -5 -1 42 -24 -30 0 
-1 42 -24 -30 0 
-28 23 -34 42 -24 -30 0 
-2 -35 3 8 21 32 41 -6 0 
-20 -19 4 15 40 -33 0 
-5 -4 15 19 41 -6 0 
-19 4 15 -5 40 -33 0 
-13 -19 4 15 40 -33 0 
-13 -5 -4 15 19 41 -6 0 
-6 -8 3 21 32 35 42 -24 -30 0 
-22 10 -5 -19 4 15 42 -24 -30 0 
-20 -19 4 15 42 -24 -30 0 
-17 -1 42 -24 -30 0 
-20 -5 -1 42 -24 -30 0 
-5 -23 28 42 -24 -30 0 
-8 3 21 32 35 -19 4 15 -1 42 -24 -30 0 
-13 -19 4 15 42 -24 -30 0 
-20 -6 -1 42 -24 -30 0 
-17 -36 41 -6 0 
-26 -20 -6 40 -33 0 
-29 9 -4 15 19 41 -6 0 
-8 3 21 32 35 -23 28 40 -33 0 
-5 -29 9 -8 3 21 32 35 42 -24 -30 0 
-13 -33 42 -24 -30 0 
-13 -1 40 -33 0 
-37 -3 8 21 32 35 41 -6 0 
-19 4 15 -1 40 -33 0 
-2 -4 15 19 41 -6 0 
-20 -4 15 19 41 -6 0 
-38 41 -6 0 
-39 41 -6 0 
